NAME : Euclidean Random Tour : n = 100, sample = 17 
COMMENT : Coordinates are generated uniformly sampled from [0, 100000] x [0, 100000] 
DIMENSION : 100 
EDGE_WEIGHT_TYPE : EUC_2D 
TOUR_SECTION 
1
54
30
92
18
32
37
25
17
79
86
22
40
85
76
26
74
56
3
6
50
80
15
88
57
42
84
45
19
96
47
52
11
29
100
34
75
48
73
94
46
39
61
10
83
99
64
23
53
28
62
24
71
59
63
81
66
89
69
44
82
70
72
95
43
90
65
33
51
67
13
98
31
77
36
58
2
55
41
4
97
93
14
8
12
16
9
35
91
49
78
21
38
5
87
7
68
27
20
60
-1
